; benchmark generated from python API
(set-info :status unknown)
(declare-fun S_1 () Real)
(declare-fun L_0 () Real)
(declare-fun A_1 () Real)
(declare-fun L0 () Real)
(declare-fun A_0 () Real)
(declare-fun S_0 () Real)
(declare-fun S_4 () Real)
(declare-fun A_4 () Real)
(declare-fun L_3 () Real)
(declare-fun A_3 () Real)
(declare-fun L_1 () Real)
(declare-fun A_2 () Real)
(declare-fun L_2 () Real)
(declare-fun S_2 () Real)
(declare-fun S_3 () Real)
(assert
 (let (($x1702 (<= (+ (* (- 1.0) A_1) L_0 S_1) 0.0)))
 (let (($x37 (>= L0 0.0)))
 (let (($x1105 (<= (+ S_0 (* (- 1.0) A_0) L_0) 0.0)))
 (let (($x3039 (<= (+ L_3 (* (- 1.0) A_4) S_4) 0.0)))
 (let ((?x947 (* (- 1.0) S_0)))
 (let ((?x14788 (* (- (/ 5.0 2.0)) A_3)))
 (let ((?x15337 (* (- (/ 5.0 2.0)) L_1)))
 (let ((?x4573 (* (/ 5.0 2.0) A_1)))
 (let ((?x15461 (* (/ 5.0 2.0) L_3)))
 (let (($x14437 (<= (+ ?x15461 ?x4573 ?x15337 ?x14788 ?x947 S_4) 0.0)))
 (let ((?x2923 (* 2.0 A_2)))
 (let ((?x2589 (* (- 2.0) A_3)))
 (let ((?x2614 (* 2.0 L_3)))
 (let ((?x6827 (* (- 3.0) L_1)))
 (let (($x5532 (<= (+ ?x6827 ?x2614 ?x2589 ?x2923 A_1 ?x947) (- 5.0))))
 (let (($x1478 (= L_3 L_1)))
 (let (($x1453 (not (= L_1 L_2))))
 (let (($x74 (= L_3 L_2)))
 (let (($x21612 (or $x74 (<= (+ ?x2614 ?x2589 (* 3.0 S_2) (* (- 1.0) S_1)) (- 10.0)))))
 (let ((?x8511 (* (/ 1.0 2.0) A_1)))
 (let ((?x1411 (* (- (/ 3.0 2.0)) A_3)))
 (let ((?x934 (* (/ 3.0 2.0) L_3)))
 (let ((?x10384 (* (- (/ 1.0 2.0)) L_0)))
 (let (($x7007 (<= (+ (* (/ 4.0 3.0) L_3) (* (- (/ 4.0 3.0)) A_3) S_4 (* (/ 1.0 3.0) S_0)) (- (/ 20.0 3.0)))))
 (let (($x6116 (<= (+ (* (- 1.0) L_1) ?x2614 ?x2589 A_2 S_4) (- 10.0))))
 (let ((?x1425 (* (- 2.0) L_1)))
 (let ((?x520 (* (- 1.0) A_3)))
 (let ((?x1150 (+ A_1 L_3 ?x520 A_2 ?x1425)))
 (let (($x1421 (<= ?x1150 (+ A_0 (* (- 1.0) L_0)))))
 (let ((?x281 (* (- 1.0) S_2)))
 (let ((?x3483 (* 2.0 A_1)))
 (let ((?x17177 (* (- 4.0) L_1)))
 (let (($x20347 (<= (+ ?x17177 ?x2614 ?x2589 ?x2923 ?x3483 ?x947 ?x281) 0.0)))
 (let (($x7409 (<= (+ L_3 A_1 (* (- 1.0) L_1) ?x520 S_1 ?x947) 0.0)))
 (let (($x11622 (<= (+ ?x6827 ?x2923 A_1 L_3 ?x520 ?x947 (* (- 1.0) S_4)) 0.0)))
 (let (($x25278 (<= (+ (* (- 1.0) L_0) A_2 (* (- 1.0) S_4)) (- 5.0))))
 (let (($x11760 (<= (+ ?x10384 (* (- (/ 1.0 2.0)) S_4) ?x8511) (- 5.0))))
 (let (($x7770 (not (= L_0 L_2))))
 (let (($x5152 (<= (+ (* (- (/ 1.0 3.0)) S_4) (* (/ 1.0 3.0) S_0)) (- 5.0))))
 (let (($x27267 (or $x5152 $x7770 (<= (+ (* (- 1.0) L_0) A_3 (* (- 1.0) S_4)) 0.0) $x11760 $x25278)))
 (let (($x20353 (<= (+ ?x6827 L_3 ?x520 ?x2923 A_1 (* (- 2.0) S_2)) 0.0)))
 (let (($x24278 (or $x74 (not $x20353) (<= (+ ?x6827 ?x2614 ?x2589 A_2 ?x3483 (* (- 2.0) S_2) S_4) 0.0))))
 (let (($x16869 (<= (+ A_2 L_3 ?x520 (* (- 1.0) L_0)) (- 10.0))))
 (let (($x24113 (or $x1453 $x1478 $x16869 (<= (+ (* (/ 1.0 2.0) L_3) (* (- (/ 1.0 2.0)) A_3) (* (/ 1.0 2.0) S_1)) (- (/ 15.0 2.0))))))
 (let (($x8761 (<= (+ ?x934 (* (/ 3.0 2.0) A_1) (* (- (/ 3.0 2.0)) L_1) ?x1411 S_2 ?x947) 0.0)))
 (let (($x20472 (<= (+ (* 3.0 L_3) (* (- 3.0) A_3) (* 4.0 S_2) ?x947) (- 15.0))))
 (let (($x23668 (or $x74 (<= (+ L_3 A_1 (* (- 1.0) L_1) ?x520 S_3 ?x281) 0.0))))
 (let (($x6359 (<= (+ (* (- 1.0) L_1) A_3 (* (- 1.0) S_4)) 0.0)))
 (let (($x40414 (or $x5152 (>= (+ (* (- (/ 1.0 2.0)) A_1) (* (/ 1.0 2.0) A_3)) 5.0) $x6359 $x25278)))
 (let (($x28331 (or $x1453 $x1478 (<= (+ (* (/ 1.0 3.0) L_3) (* (- (/ 1.0 3.0)) A_3) (* (/ 1.0 3.0) S_0)) (- (/ 20.0 3.0))) (<= (+ ?x10384 (* (/ 1.0 2.0) L_3) (* (- (/ 1.0 2.0)) A_3) ?x8511) (- (/ 15.0 2.0))) $x16869)))
 (let ((?x13980 (* (- (/ 1.0 2.0)) A_1)))
 (let ((?x4775 (* (- (/ 1.0 2.0)) A_3)))
 (let ((?x7218 (* (/ 1.0 2.0) L_3)))
 (let ((?x2953 (* (/ 1.0 2.0) L_0)))
 (let (($x39484 (or $x5152 $x6359 (<= (+ ?x3483 L_1 (* (- 3.0) A_2) S_4) (- 5.0)) $x25278)))
 (let ((?x4076 (* (- 3.0) A_2)))
 (let ((?x497 (* (- 1.0) S_4)))
 (let ((?x11848 (* 3.0 A_3)))
 (let ((?x7106 (* (- 3.0) L_3)))
 (let ((?x14537 (* 3.0 L_0)))
 (let (($x6541 (<= (+ (* (- 1.0) L_2) A_3 ?x497) 0.0)))
 (let (($x27896 (or $x5152 $x6541 $x11760 (not (<= (+ ?x14537 ?x7106 ?x11848 ?x497 S_0 ?x4076) 0.0)))))
 (let (($x6650 (>= (+ (* (- (/ 1.0 2.0)) L_3) ?x13980 (* (/ 1.0 2.0) L_1) (* (/ 1.0 2.0) A_3)) 5.0)))
 (let (($x23899 (or $x74 (<= (+ L_0 ?x2614 ?x2589 (* 3.0 S_2) (* (- 1.0) A_0)) (- 10.0)))))
 (let (($x64 (= L_2 L_1)))
 (let (($x25717 (or $x64 (<= (+ (* 3.0 L_2) (* (- 2.0) L_0) ?x4076 ?x3483 S_4) (- 15.0)) (<= (+ (* 2.0 L_2) (* (- 2.0) A_2) S_4 S_0) (- 10.0)))))
 (let (($x25755 (or $x1453 $x1478 (<= (+ ?x1425 ?x2614 ?x2589 ?x2923 ?x947 S_1) (- 10.0)) (<= (+ L_3 ?x520 (* 2.0 S_1) ?x947) (- 5.0)))))
 (let (($x22341 (or $x64 (<= (+ (* 3.0 L_2) ?x4076 S_4 (* 2.0 S_1)) (- 15.0)))))
 (let (($x21818 (or $x64 (<= (+ (* 2.0 L_2) (* (- 1.0) A_2) ?x520 S_4 S_1) (- 5.0)))))
 (let (($x16617 (<= (+ ?x7218 ?x8511 (* (- (/ 1.0 2.0)) L_1) ?x4775 L_0 S_1 (* (- 1.0) A_0)) 0.0)))
 (let (($x1076 (not (<= 0.0 (+ (* (- 1.0) L_1) L_0)))))
 (let (($x20989 (or $x1076 $x1453 $x1478 (<= (+ A_2 L_3 ?x520 S_1 (* (- 1.0) A_0)) (- 5.0)) (<= (+ L_0 ?x7218 ?x4775 (* (/ 3.0 2.0) S_1) (* (- 1.0) A_0)) (- (/ 5.0 2.0))))))
 (let (($x20843 (or $x1453 $x1478 $x6116 (<= (+ ?x934 ?x8511 (* (- (/ 1.0 2.0)) L_1) ?x1411 S_4) (- 5.0)))))
 (let (($x23844 (<= (+ (* 2.0 L_2) (* (- 1.0) L_0) (* (- 2.0) A_2) A_1 S_3) (- 10.0))))
 (let (($x12024 (<= (+ (* (/ 3.0 2.0) L_2) (* (- (/ 3.0 2.0)) A_2) (* (/ 1.0 2.0) S_0) S_3) (- (/ 15.0 2.0)))))
 (let (($x20798 (or $x1453 $x1478 $x6116 (<= (+ ?x934 ?x1411 S_4 (* (/ 1.0 2.0) S_1)) (- (/ 15.0 2.0))))))
 (let (($x54 (= L_1 L_0)))
 (let (($x20658 (or $x54 (<= (+ L_1 (* (- 1.0) A_1) (* 2.0 S_2) ?x497) (- 5.0)) $x6541)))
 (let ((?x1103 (* (- 1.0) A_0)))
 (let ((?x11982 (* (- (/ 3.0 2.0)) L_1)))
 (let ((?x935 (* (/ 3.0 2.0) A_1)))
 (let (($x3431 (or (<= (+ (* (- 1.0) L_1) L_0 A_2 S_1 ?x497 ?x1103) 0.0) $x6541 (<= (+ L_0 (* (/ 3.0 2.0) S_1) (* (- (/ 1.0 2.0)) S_4) ?x1103) 0.0))))
 (let (($x17879 (<= (+ A_1 (* (- 1.0) L_0) L_2 (* (- 1.0) A_2) ?x520 L_3 S_4) (- 5.0))))
 (let (($x11024 (<= (+ (* (/ 3.0 2.0) L_2) (* (- (/ 1.0 2.0)) A_2) S_4 (* (/ 1.0 2.0) S_0) ?x520) (- (/ 5.0 2.0)))))
 (let (($x4139 (= L_2 L_0)))
 (let (($x3267 (not (= L_0 L_1))))
 (let (($x20065 (or $x6541 (<= (+ ?x1425 ?x2923 ?x947 S_1 (* (- 2.0) S_4)) 0.0) (<= (+ ?x947 (* 2.0 S_1) ?x497) 0.0))))
 (let (($x4221 (<= (+ (* 4.0 L_1) (* (- 4.0) A_1) (* 3.0 S_0) S_4) (- 20.0))))
 (let ((?x8520 (* 2.0 S_0)))
 (let ((?x2730 (* (- 2.0) A_1)))
 (let ((?x524 (* (- 1.0) A_2)))
 (let ((?x1078 (* 3.0 L_1)))
 (let (($x40261 (or $x74 (<= (+ ?x2589 ?x2614 (* (- 2.0) L_2) ?x2923 S_1 ?x947) 0.0))))
 (let (($x8943 (<= (+ (* 2.0 L_2) (* (- 2.0) A_2) (* 3.0 S_1) ?x947) (- 10.0))))
 (let ((?x8365 (* 3.0 A_2)))
 (let ((?x11851 (* (- 3.0) L_2)))
 (let ((?x8719 (* 3.0 L_3)))
 (let ((?x14712 (* (- 3.0) A_3)))
 (let ((?x11257 (* 4.0 A_2)))
 (let ((?x2779 (* (- 4.0) L_2)))
 (let ((?x845 (* 4.0 L_3)))
 (let ((?x980 (* (- 4.0) A_3)))
 (let (($x3031 (or $x6541 (<= (+ (* 3.0 S_2) (* (- 2.0) S_4) (* (- 1.0) S_1)) 0.0))))
 (let ((?x8560 (* 5.0 A_2)))
 (let ((?x9083 (* (- 5.0) L_2)))
 (let ((?x1789 (* 5.0 L_3)))
 (let ((?x3292 (* (- 5.0) A_3)))
 (let (($x11538 (<= (+ L_1 (* (- 1.0) A_1) (* (- 1.0) L_3) A_3 S_1 ?x497) 0.0)))
 (let (($x9196 (or $x64 (<= (+ (* 2.0 L_2) (* (- 2.0) A_2) S_1 S_3) (- 10.0)))))
 (let (($x29406 (or $x64 (<= (+ A_3 (* (- 1.0) L_3) L_2 ?x524 S_2 ?x497) 0.0))))
 (let (($x13321 (or $x54 (<= (+ (* 2.0 L_1) ?x524 (* (- 1.0) A_1) S_0 S_3) (- 5.0)))))
 (let (($x5799 (<= (+ L_3 A_1 (* (- 1.0) L_1) ?x520 S_2 (* (- 1.0) S_1)) 0.0)))
 (let (($x39345 (or $x74 (<= (+ ?x2589 ?x2614 (* (- 2.0) L_2) ?x2923 L_0 S_2 ?x1103) 0.0))))
 (let (($x9595 (<= (+ ?x2589 ?x2614 (* (- 2.0) L_2) ?x2923 S_2 (* (- 1.0) S_1)) 0.0)))
 (let (($x9987 (or $x6541 (<= (+ L_0 (* 3.0 S_2) (* (- 2.0) S_4) ?x1103) 0.0))))
 (let (($x21920 (or $x54 (<= (+ (* 2.0 L_1) (* (- 1.0) A_1) ?x520 S_0 S_4) (- 5.0)))))
 (let (($x9170 (<= (+ ?x2614 ?x3483 ?x1425 ?x2589 S_3 ?x947) 0.0)))
 (let (($x1415 (>= S_1 ?x1150)))
 (let ((?x602 (* (- 1.0) L_0)))
 (let ((?x12263 (* (- 2.0) A_2)))
 (let ((?x8956 (* 2.0 L_2)))
 (let ((?x505 (* (- 1.0) L_3)))
 (let (($x10867 (<= (+ (* 2.0 A_3) (* (- 2.0) L_3) (* 3.0 L_2) ?x4076 S_0) (- 5.0))))
 (let (($x2572 (<= (+ ?x520 L_3 (* (- 1.0) L_2) A_2 (* (- 1.0) A_1) L_0 S_2) 0.0)))
 (let ((?x4772 (* (/ 1.0 2.0) A_3)))
 (let ((?x12645 (* (/ 3.0 2.0) L_1)))
 (let ((?x8765 (* (- (/ 3.0 2.0)) A_1)))
 (let ((?x13288 (* (- (/ 1.0 2.0)) L_3)))
 (let (($x2997 (<= (+ (* 2.0 A_3) (* (- 2.0) L_3) ?x8956 ?x12263 A_1 ?x602 ?x497) 0.0)))
 (let (($x1077 (<= 0.0 (+ L_1 ?x524 L_2 (* (- 1.0) A_1) ?x505 A_3 S_0))))
 (let (($x1072 (not $x1077)))
 (let (($x4440 (<= (+ ?x12645 ?x8765 (* (- (/ 3.0 2.0)) L_3) (* (/ 3.0 2.0) A_3) S_0 ?x497) 0.0)))
 (let (($x2507 (<= (+ (* 2.0 A_3) (* (- 2.0) L_3) ?x8956 ?x12263 S_1 ?x497) 0.0)))
 (let ((?x495 (* (- 1.0) L_2)))
 (let ((?x710 (+ L_1 ?x495)))
 (let (($x1073 (<= 0.0 ?x710)))
 (let (($x1345 (not (= L_2 L_3))))
 (let (($x39260 (or $x64 (<= (+ ?x524 A_3 (* (- (/ 1.0 3.0)) S_4) (* (/ 1.0 3.0) S_0)) 0.0) $x1345 (<= (+ (* 2.0 A_3) ?x12263 A_1 ?x602 ?x497) 0.0))))
 (let (($x39086 (or $x64 $x1077 (<= (+ ?x11848 ?x7106 (* 3.0 L_2) ?x4076 S_0 ?x497) 0.0))))
 (let (($x19568 (or $x54 $x74 (<= (+ (* (/ 1.0 2.0) L_1) ?x13980 ?x7218 ?x4775 S_2) (- 5.0)))))
 (let (($x21678 (or $x74 (<= (+ L_3 A_1 (* (- 1.0) L_1) ?x520 L_0 S_2 ?x1103) 0.0))))
 (let (($x30204 (or $x54 $x6541 (<= (+ (* (- 3.0) A_1) ?x1078 ?x11851 ?x8365 S_0 ?x497) 0.0))))
 (let (($x20046 (or $x54 $x6541 (<= (+ ?x13288 ?x13980 (* (/ 1.0 2.0) L_1) ?x4772 S_2 ?x497) 0.0))))
 (let (($x39457 (or $x64 (<= (+ A_1 (* (- 1.0) L_1) ?x8956 ?x524 ?x520 S_4) 0.0))))
 (let (($x1696 (<= (+ A_1 ?x602 ?x281) 0.0)))
 (let (($x1455 (<= (+ (* 3.0 A_1) ?x6827 (* 3.0 L_2) ?x4076 S_2 ?x947) 0.0)))
 (let (($x27566 (or $x54 $x6541 (<= (+ (* (- 1.0) A_1) L_1 ?x495 A_2 S_2 ?x497) 0.0))))
 (let (($x22193 (or $x54 $x1453 $x6359 (<= (+ (* (- 1.0) A_1) A_2 S_2 ?x497) 0.0))))
 (let (($x1384 (<= (+ ?x2730 (* 2.0 L_1) (* (- 2.0) L_2) ?x2923 S_1 ?x497) 0.0)))
 (let (($x39160 (or $x64 (<= (+ ?x3483 ?x1425 ?x8956 ?x12263 S_2 (* (- 1.0) S_1)) 0.0))))
 (let ((?x1001 (* (- 5.0) A_2)))
 (let ((?x16248 (* 5.0 L_2)))
 (let ((?x888 (* (- 5.0) L_1)))
 (let ((?x1716 (* 5.0 A_1)))
 (let ((?x9275 (* (- 4.0) A_2)))
 (let ((?x4281 (* 4.0 L_2)))
 (let ((?x4318 (* 4.0 A_1)))
 (let ((?x240 (* (- 1.0) S_1)))
 (let ((?x6647 (* 3.0 L_2)))
 (let ((?x7768 (* 3.0 A_1)))
 (let (($x24528 (or $x3267 $x4139 (<= (+ ?x3483 (* (- 2.0) L_0) ?x8956 ?x12263 S_3 ?x281) 0.0))))
 (let (($x24655 (or $x3267 $x4139 (<= (+ ?x7768 (* (- 2.0) L_0) ?x6647 ?x4076 S_3 ?x1103) 0.0))))
 (let (($x9947 (<= 0.0 (+ L_3 ?x520 L_1 (* (- 1.0) A_1) (* (- 2.0) L_2) ?x2923))))
 (let (($x22405 (or $x54 (<= (+ (* (- 1.0) A_1) L_1 ?x495 A_2 ?x281 S_0) 0.0))))
 (let (($x23896 (or $x64 (<= (+ A_1 (* (- 1.0) L_1) L_2 ?x524 L_0 S_1 ?x1103) 0.0))))
 (let (($x21773 (or $x54 (<= (+ ?x13288 ?x13980 (* (/ 1.0 2.0) L_1) ?x4772 ?x281 S_0) 0.0))))
 (let (($x643 (not (<= (+ A_3 ?x505) S_3))))
 (let (($x40322 (or $x74 (<= (+ ?x2589 ?x2614 (* (- 2.0) L_2) ?x2923 S_3 ?x281) 0.0))))
 (let (($x39309 (or $x74 (<= (+ ?x14712 ?x8719 ?x11851 ?x8365 (* (- 1.0) A_1) L_0 S_4) 0.0))))
 (let (($x11015 (<= (+ ?x2589 ?x2614 (* (- 2.0) L_2) ?x2923 (* (- 1.0) A_1) L_0 S_3) 0.0)))
 (let (($x28117 (or $x54 $x74 (= (+ (* (- 1.0) L_1) A_1 ?x505 ?x8956 ?x12263 A_3) 0.0) (not $x9947))))
 (let (($x5802 (or $x3267 $x4139 (<= (+ ?x3483 (* (- 2.0) L_0) ?x8956 ?x12263 S_2 ?x240) 0.0))))
 (let (($x5401 (or $x3267 $x4139 (<= (+ ?x4318 (* (- 3.0) L_0) ?x4281 ?x9275 S_4 ?x1103) 0.0))))
 (let (($x11286 (or (<= (+ ?x4318 (* (- 4.0) L_0) ?x4281 ?x9275 S_3 ?x947) 0.0) $x3267 $x4139)))
 (let (($x1428 (or $x3267 $x4139 (<= (+ ?x7768 (* (- 3.0) L_0) ?x6647 ?x4076 S_2 ?x947) 0.0))))
 (let (($x1152 (or $x74 (not (<= 0.0 (+ L_2 ?x505))))))
 (let (($x17887 (or $x54 (<= (+ L_1 (* (- 1.0) A_1) S_1) (- 5.0)))))
 (let (($x8486 (<= (+ (* 2.0 L_1) ?x524 (* (- 1.0) A_1) ?x505 A_3 S_0) 0.0)))
 (let (($x20776 (or $x54 $x8486)))
 (let (($x16487 (or $x74 (<= (+ L_3 ?x520 S_3) (- 5.0)))))
 (let (($x16179 (or $x64 (<= (+ L_2 ?x524 S_2) (- 5.0)))))
 (let (($x2530 (or $x64 (not $x1073))))
 (let (($x3324 (or $x54 $x1076)))
 (let (($x232 (<= (+ A_2 ?x495) S_3)))
 (let (($x125 (>= A_4 A_3)))
 (let (($x123 (>= A_2 A_1)))
 (let (($x122 (>= A_1 A_0)))
 (let (($x114 (>= S_2 S_1)))
 (let (($x111 (>= S_1 S_0)))
 (let (($x36 (>= L_0 L0)))
 (let (($x120 (>= S_4 S_3)))
 (let (($x1404 (<= S_2 (+ A_2 (* (- 1.0) L_1)))))
 (and $x1404 $x120 $x36 $x111 $x114 $x122 $x123 $x125 $x232 $x3324 $x2530 $x16179 $x16487 $x20776 $x17887 (or $x3267 $x4139 (<= (+ ?x12263 ?x8956 A_1 ?x602 S_3) (- 5.0))) $x1152 $x1428 $x11286 $x5401 $x5802 (or $x3267 $x4139 (<= (+ ?x602 ?x3483 ?x8956 ?x12263 S_2 ?x1103) 0.0)) (or $x64 (<= (+ A_3 ?x505 ?x8956 ?x12263 S_1) (- 5.0))) (or $x74 (<= (+ ?x14712 ?x8719 ?x11851 ?x8365 L_0 S_3 ?x1103) 0.0)) (or $x74 (<= (+ ?x980 ?x845 ?x2779 ?x11257 L_0 S_4 ?x1103) 0.0)) $x28117 (or $x64 (<= (+ ?x7768 ?x6827 ?x6647 ?x4076 ?x281 S_4) 0.0)) (or $x1696 (<= (+ (* (- 4.0) S_2) S_4 (* 3.0 S_0)) 0.0)) (or $x74 $x11015) (or $x74 (<= (+ ?x14712 ?x8719 ?x11851 ?x8365 ?x281 S_4) 0.0)) $x39309 (or $x74 (<= (+ ?x2589 ?x2614 ?x495 A_2 S_4) (- 5.0))) (or (<= (+ ?x281 S_0) (- 5.0)) $x1696) (or $x1696 (<= (+ (* (- 3.0) S_2) ?x8520 S_3) 0.0)) $x40322 (or $x1696 (<= (+ L_0 ?x281 S_0 ?x524 S_3) 0.0)) $x643 (or $x54 $x1453 (<= (+ ?x2730 L_1 A_2 S_0) (- 5.0))) (or $x3267 $x4139 (<= (+ A_1 ?x602 ?x8956 ?x524 ?x520 S_4) 0.0)) (or $x64 (<= (+ ?x4318 ?x17177 ?x4281 ?x9275 L_0 S_4 ?x1103) 0.0)) $x21773 (or $x74 $x1415 (<= (+ ?x934 ?x935 ?x11982 ?x1411 S_3 ?x240) 0.0)) $x23896 (or $x74 $x1415 (<= (+ ?x2614 ?x3483 ?x1425 ?x2589 ?x240 S_4) 0.0)) (or $x1453 $x1478 (<= (+ ?x14712 ?x8719 ?x6827 ?x8365 S_3 ?x240) 0.0)) (or $x74 (<= (+ ?x14712 ?x8719 ?x11851 ?x8365 S_3 ?x240) 0.0)) (or $x74 (<= (+ ?x980 ?x845 ?x2779 ?x11257 ?x240 S_4) 0.0)) $x22405 (or $x1696 (<= (+ L_2 ?x281 S_4 S_0 ?x520) 0.0)) (or $x64 $x1696 (<= (+ A_3 ?x505 L_2 ?x524 ?x281 S_0) 0.0)) (or $x1453 $x1478 (<= (+ ?x3292 ?x1789 ?x888 ?x8560 ?x947 S_4) 0.0)) (or $x74 (<= (+ ?x520 L_3 ?x495 A_2 L_0 S_1 ?x1103) 0.0)) (or $x64 $x9947) $x24655 $x24528 (or $x54 (<= (+ L_1 ?x524 S_0 ?x281 S_3) 0.0)) (or $x64 (<= (+ ?x4318 ?x17177 ?x4281 ?x9275 ?x240 S_4) 0.0)) (or $x64 (<= (+ ?x3483 ?x1425 ?x8956 ?x12263 S_3 ?x281) 0.0)) (or $x64 (<= (+ ?x7768 ?x6827 ?x6647 ?x4076 L_0 S_3 ?x1103) 0.0)) (or $x64 (<= (+ ?x7768 ?x6827 ?x6647 ?x4076 S_3 ?x240) 0.0)) (or $x64 (<= (+ ?x4318 ?x17177 ?x4281 ?x9275 S_3 ?x947) 0.0)) (or $x64 (<= (+ ?x1716 ?x888 ?x16248 ?x1001 ?x947 S_4) 0.0)) (or $x64 (<= (+ ?x3483 ?x1425 ?x8956 ?x12263 S_1 ?x947) 0.0)) (or $x64 (<= (+ ?x1425 ?x3483 ?x8956 ?x12263 L_0 S_2 ?x1103) 0.0)) $x39160 (or $x54 (<= (+ ?x1078 (* (- 3.0) A_1) ?x8520 S_3) (- 15.0))) (or $x6541 (<= (+ ?x2953 S_2 (* (- (/ 1.0 2.0)) S_4) ?x13980) 0.0)) (or $x54 $x1384 $x6541) (or $x54 (<= (+ ?x2730 (* 2.0 L_1) ?x495 A_2 S_0) (- 5.0))) $x22193 $x27566 (or $x54 (<= (+ (* 2.0 L_1) ?x2730 S_0 S_2) (- 10.0))) (or $x64 $x1455) (or $x1696 (<= (+ L_0 (* (- 2.0) S_2) S_4 ?x8520 ?x524) 0.0)) (or $x6541 (<= (+ S_2 ?x497) (- 5.0))) (or $x6541 (<= (+ (* (/ 1.0 2.0) S_1) (* (- (/ 1.0 2.0)) S_4)) (- 5.0)) $x25278) (or $x64 (<= (+ ?x12263 ?x8956 A_1 (* (- 1.0) L_1) S_3) (- 5.0))) $x39457 (or $x6541 (<= (+ (* 4.0 S_2) (* (- 3.0) S_4) ?x947) 0.0)) (or $x54 (<= (+ L_1 (* (- 1.0) A_1) S_0) (- 10.0))) $x20046 (or $x64 (<= (+ ?x3483 ?x1425 ?x6647 ?x4076 S_4) (- 5.0))) $x30204 (or $x1453 $x1478 (<= (+ ?x14712 ?x8719 ?x6827 ?x8365 S_2 ?x947) 0.0)) $x21678 $x19568 $x39086 (or $x1073 $x1345 (<= (+ (* 2.0 A_3) ?x12263 S_1 ?x497) 0.0)) $x39260 (or $x1073 $x2507) (or $x54 $x4440) (or $x64 $x1072 $x2997) (or $x54 (<= (+ ?x13288 ?x8765 ?x12645 ?x4772 S_0) (- 5.0))) (or $x74 $x2572) (or $x64 $x10867 (<= (+ A_3 ?x505 ?x8956 ?x12263 A_1 ?x602) (- 5.0))) (or $x74 $x1415 $x8761) (or $x74 $x1415 $x9170) (or $x74 $x1415 $x14437) $x21920 $x9987 (or $x74 $x9595) $x39345 (or $x74 $x5799) (or $x54 (<= (+ L_1 ?x524 ?x8520 (* (- 2.0) S_2) S_4) 0.0)) $x13321 $x29406 $x9196 (or $x74 $x1421 (<= (+ ?x2614 ?x3483 ?x1425 ?x2589 L_0 S_4 ?x1103) 0.0)) (or $x74 (<= (+ ?x934 ?x935 ?x11982 ?x1411 ?x281 S_4) 0.0) $x20353) (or $x54 $x11538) (or $x74 (<= (+ ?x3292 ?x1789 ?x9083 ?x8560 ?x947 S_4) 0.0)) $x3031 (or $x74 (<= (+ ?x980 ?x845 ?x2779 ?x11257 S_3 ?x947) 0.0)) (or $x74 (<= (+ ?x14712 ?x8719 ?x11851 ?x8365 S_2 ?x947) 0.0)) (or $x64 $x8943) $x40261 (or $x64 (<= (+ L_2 L_0 ?x524 (* 2.0 S_1) ?x1103) (- 5.0))) (or $x54 (<= (+ ?x1078 ?x524 ?x2730 ?x8520 S_4) (- 10.0))) (or $x54 $x4221) $x20065 (or $x1453 $x1478 $x5532 $x8761) (or $x74 $x8761 $x11622) (or $x3267 $x4139 $x11024 $x17879) $x3431 (or $x74 (<= (+ ?x934 ?x935 ?x11982 ?x1411 L_0 S_3 ?x1103) 0.0) $x1421) $x20658 $x20798 (or $x64 $x12024 $x23844) $x20843 $x20989 (or $x74 $x1421 $x16617) $x21818 $x22341 $x25755 $x25717 (or $x74 $x14437 $x20347) (or $x54 $x5152 $x6359) (or $x74 (<= (+ L_3 ?x520 S_2) (- 10.0))) $x23899 (or $x1453 $x1478 $x6650) $x27896 $x39484 (or $x74 (<= (+ ?x2953 ?x7218 ?x4775 S_2 ?x13980) (- (/ 5.0 2.0)))) $x28331 $x40414 $x23668 (or $x74 $x9170 $x20347) (or $x74 $x9170 $x11622) (or $x74 $x1421 $x9170) (or $x1453 $x1478 $x5532 $x9170) (or $x74 $x1421 $x7409) (or $x1453 $x1478 $x5532 $x7409) (or $x74 $x20472) (or $x74 $x1421 $x8761) $x24113 $x24278 (or $x74 $x7409 $x20353) $x27267 (or $x74 (<= (+ ?x2614 ?x2589 S_2 S_4) (- 10.0))) (or $x74 $x7409 $x11622) (or $x74 $x7409 $x20347) (or $x74 $x1421 $x14437) (or $x1453 $x1478 $x6116 $x7007 (<= (+ ?x10384 ?x934 ?x1411 S_4 ?x8511) (- (/ 15.0 2.0)))) $x21612 (or $x1453 $x1478 $x5532 $x14437) $x3039 $x1105 $x37 $x1702))))))))))))))))))))))))))))))))))))))))))))))))))))))))))))))))))))))))))))))))))))))))))))))))))))))))))))))))))))))))))))))))))))))))))))))))))))))))))))))))))))))))))))))))))))))))))))))))))
(check-sat)
